12 12 3

minsum minsum minsum

369 590 30 248 800 631 607 681 503 16 84 18
349 230 766 514 39 218 836 982 275 88 23 72
580 514 948 557 815 499 96 54 525 49 40 52

1 1 1 0 0 0 0 0 0 0 0 0
0 0 0 1 1 1 0 0 0 0 0 0
0 0 0 0 0 0 1 1 1 0 0 0
1 0 0 0 0 0 0 0 0 -1 0 0
0 1 0 0 0 0 0 0 0 0 -1 0
0 0 1 0 0 0 0 0 0 0 0 -1
0 0 0 1 0 0 0 0 0 -1 0 0
0 0 0 0 1 0 0 0 0 0 -1 0
0 0 0 0 0 1 0 0 0 0 0 -1
0 0 0 0 0 0 1 0 0 -1 0 0
0 0 0 0 0 0 0 1 0 0 -1 0
0 0 0 0 0 0 0 0 1 0 0 -1

2 1
2 1
2 1
1 0
1 0
1 0
1 0
1 0
1 0
1 0
1 0
1 0

0 0 0 0 0 0 0 0 0 0 0 0
1 1 1 1 1 1 1 1 1 1 1 1
